# vtk DataFile Version 2.0
test grain
ASCII
DATASET UNSTRUCTURED_GRID
POINTS 4 float
0.261851 0.211607 0.
0.977242 0.211607 0.
0.261851 0.789727 0.
0.977242 0.789727 0.
CELLS 4 8
1 0
1 1
1 2
1 3
CELL_TYPES 4
1 
1 
1 
1 
POINT_DATA 4
VECTORS Stress float
52075.1 -39486.4 0.
52075.1 -39486.4 0.
52075.1 -39486.4 0.
52075.1 -39486.4 0.
