# vtk DataFile Version 2.0
test grain
ASCII
DATASET UNSTRUCTURED_GRID
POINTS 4 float
0.211325 0.211607 0.
0.788675 0.211607 0.
0.211325 0.789728 0.
0.788675 0.789728 0.
CELLS 4 8
1 0
1 1
1 2
1 3
CELL_TYPES 4
1 
1 
1 
1 
POINT_DATA 4
VECTORS Stress float
-9.16029e-10 -39486.4 0.
-9.16029e-10 -39486.4 0.
1.05292e-09 -39486.4 0.
1.05292e-09 -39486.4 0.
