# vtk DataFile Version 2.0
test grain
ASCII
DATASET UNSTRUCTURED_GRID
POINTS 4 float
0.211325 0.211012 0.
0.788675 0.211012 0.
0.211325 0.787507 0.
0.788675 0.787507 0.
CELLS 4 8
1 0
1 1
1 2
1 3
CELL_TYPES 4
1 
1 
1 
1 
POINT_DATA 4
VECTORS Stress float
-3.0366e-10 -49875.4 0.
-3.0366e-10 -49875.4 0.
1.59094e-10 -49875.4 0.
1.59094e-10 -49875.4 0.
