# vtk DataFile Version 2.0
test grain
ASCII
DATASET UNSTRUCTURED_GRID
POINTS 4 float
0.211325 0.211354 0.
0.788675 0.211354 0.
0.211325 0.788782 0.
0.788675 0.788782 0.
CELLS 4 8
1 0
1 1
1 2
1 3
CELL_TYPES 4
1 
1 
1 
1 
POINT_DATA 4
VECTORS Stress float
-2.61527e-10 -20321.1 0.
-2.61527e-10 -20321.1 0.
1.29038e-10 -20321.1 0.
1.29038e-10 -20321.1 0.
