# vtk DataFile Version 2.0
test grain
ASCII
DATASET UNSTRUCTURED_GRID
POINTS 4 float
0.211325 0.211 0.
0.788675 0.211 0.
0.211325 0.787462 0.
0.788675 0.787462 0.
CELLS 4 8
1 0
1 1
1 2
1 3
CELL_TYPES 4
1 
1 
1 
1 
POINT_DATA 4
VECTORS Stress float
-4.18504e-10 -50716.8 0.
-4.18504e-10 -50716.8 0.
5.19476e-10 -50716.8 0.
5.19476e-10 -50716.8 0.
