# vtk DataFile Version 2.0
test grain
ASCII
DATASET UNSTRUCTURED_GRID
POINTS 4 float
0.211325 0.211009 0.
0.788675 0.211009 0.
0.211325 0.787498 0.
0.788675 0.787498 0.
CELLS 4 8
1 0
1 1
1 2
1 3
CELL_TYPES 4
1 
1 
1 
1 
POINT_DATA 4
VECTORS Stress float
6.04427e-11 -49895.9 0.
6.04427e-11 -49895.9 0.
-2.74778e-11 -49895.9 0.
-2.74778e-11 -49895.9 0.
