# vtk DataFile Version 2.0
test grain
ASCII
DATASET UNSTRUCTURED_GRID
POINTS 4 float
0.211325 0.210969 0.
0.788675 0.210969 0.
0.211325 0.787348 0.
0.788675 0.787348 0.
CELLS 4 8
1 0
1 1
1 2
1 3
CELL_TYPES 4
1 
1 
1 
1 
POINT_DATA 4
VECTORS Stress float
-1.15276e-10 -51845.4 0.
-1.15276e-10 -51845.4 0.
3.31563e-11 -51845.4 0.
3.31563e-11 -51845.4 0.
