# vtk DataFile Version 2.0
test grain
ASCII
DATASET UNSTRUCTURED_GRID
POINTS 4 float
0.211325 0.210988 0.
0.788675 0.210988 0.
0.211325 0.787417 0.
0.788675 0.787417 0.
CELLS 4 8
1 0
1 1
1 2
1 3
CELL_TYPES 4
1 
1 
1 
1 
POINT_DATA 4
VECTORS Stress float
3.39267e-11 -51278 0.
3.39267e-11 -51278 0.
8.61636e-10 -51278 0.
8.61636e-10 -51278 0.
