# vtk DataFile Version 2.0
test grain
ASCII
DATASET UNSTRUCTURED_GRID
POINTS 4 float
0.211325 0.211348 0.
0.788675 0.211348 0.
0.211325 0.78876 0.
0.788675 0.78876 0.
CELLS 4 8
1 0
1 1
1 2
1 3
CELL_TYPES 4
1 
1 
1 
1 
POINT_DATA 4
VECTORS Stress float
8.05209e-10 -9701.57 0.
8.05209e-10 -9701.57 0.
8.15924e-10 -9701.57 0.
8.15924e-10 -9701.57 0.
