# vtk DataFile Version 2.0
test grain
ASCII
DATASET UNSTRUCTURED_GRID
POINTS 4 float
0.211325 0.2111 0.
0.788675 0.2111 0.
0.211325 0.787837 0.
0.788675 0.787837 0.
CELLS 4 8
1 0
1 1
1 2
1 3
CELL_TYPES 4
1 
1 
1 
1 
POINT_DATA 4
VECTORS Stress float
-8.14026e-10 -45548.5 0.
-8.14026e-10 -45548.5 0.
-3.08337e-11 -45548.5 0.
-3.08337e-11 -45548.5 0.
