# vtk DataFile Version 2.0
test grain
ASCII
DATASET UNSTRUCTURED_GRID
POINTS 4 float
0.211325 0.211156 0.
0.788675 0.211156 0.
0.211325 0.788045 0.
0.788675 0.788045 0.
CELLS 4 8
1 0
1 1
1 2
1 3
CELL_TYPES 4
1 
1 
1 
1 
POINT_DATA 4
VECTORS Stress float
7.32152e-11 -42350.2 0.
7.32152e-11 -42350.2 0.
9.66351e-10 -42350.2 0.
9.66351e-10 -42350.2 0.
