# vtk DataFile Version 2.0
test grain
ASCII
DATASET UNSTRUCTURED_GRID
POINTS 4 float
0.211325 0.211316 0.
0.788675 0.211316 0.
0.211325 0.78864 0.
0.788675 0.78864 0.
CELLS 4 8
1 0
1 1
1 2
1 3
CELL_TYPES 4
1 
1 
1 
1 
POINT_DATA 4
VECTORS Stress float
-4.42235e-10 -30113.4 0.
-4.42235e-10 -30113.4 0.
-4.085e-11 -30113.4 0.
-4.085e-11 -30113.4 0.
