# vtk DataFile Version 2.0
test grain
ASCII
DATASET UNSTRUCTURED_GRID
POINTS 4 float
0.211325 0.211032 0.
0.788675 0.211032 0.
0.211325 0.787582 0.
0.788675 0.787582 0.
CELLS 4 8
1 0
1 1
1 2
1 3
CELL_TYPES 4
1 
1 
1 
1 
POINT_DATA 4
VECTORS Stress float
-4.76631e-10 -49140.7 0.
-4.76631e-10 -49140.7 0.
3.39878e-10 -49140.7 0.
3.39878e-10 -49140.7 0.
