# vtk DataFile Version 2.0
test grain
ASCII
DATASET UNSTRUCTURED_GRID
POINTS 4 float
0.211325 0.21101 0.
0.788675 0.21101 0.
0.211325 0.787501 0.
0.788675 0.787501 0.
CELLS 4 8
1 0
1 1
1 2
1 3
CELL_TYPES 4
1 
1 
1 
1 
POINT_DATA 4
VECTORS Stress float
-5.36488e-11 -49939.3 0.
-5.36488e-11 -49939.3 0.
3.10251e-10 -49939.3 0.
3.10251e-10 -49939.3 0.
