# vtk DataFile Version 2.0
test grain
ASCII
DATASET UNSTRUCTURED_GRID
POINTS 4 float
0.211325 0.211015 0.
0.788675 0.211015 0.
0.211325 0.787519 0.
0.788675 0.787519 0.
CELLS 4 8
1 0
1 1
1 2
1 3
CELL_TYPES 4
1 
1 
1 
1 
POINT_DATA 4
VECTORS Stress float
-3.43566e-11 -49694.6 0.
-3.43566e-11 -49694.6 0.
1.21211e-10 -49694.6 0.
1.21211e-10 -49694.6 0.
