# vtk DataFile Version 2.0
test grain
ASCII
DATASET UNSTRUCTURED_GRID
POINTS 4 float
0.211325 0.211295 0.
0.788675 0.211295 0.
0.211325 0.788563 0.
0.788675 0.788563 0.
CELLS 4 8
1 0
1 1
1 2
1 3
CELL_TYPES 4
1 
1 
1 
1 
POINT_DATA 4
VECTORS Stress float
7.61376e-11 -32326 0.
7.61376e-11 -32326 0.
5.93133e-10 -32326 0.
5.93133e-10 -32326 0.
