# vtk DataFile Version 2.0
test grain
ASCII
DATASET UNSTRUCTURED_GRID
POINTS 4 float
0.211325 0.211332 0.
0.788675 0.211332 0.
0.211325 0.788701 0.
0.788675 0.788701 0.
CELLS 4 8
1 0
1 1
1 2
1 3
CELL_TYPES 4
1 
1 
1 
1 
POINT_DATA 4
VECTORS Stress float
-1.66353e-10 -27845.1 0.
-1.66353e-10 -27845.1 0.
1.39725e-10 -27845.1 0.
1.39725e-10 -27845.1 0.
