# vtk DataFile Version 2.0
test grain
ASCII
DATASET UNSTRUCTURED_GRID
POINTS 4 float
0.211325 0.210966 0.
0.788675 0.210966 0.
0.211325 0.787337 0.
0.788675 0.787337 0.
CELLS 4 8
1 0
1 1
1 2
1 3
CELL_TYPES 4
1 
1 
1 
1 
POINT_DATA 4
VECTORS Stress float
2.92831e-10 -52017.5 0.
2.92831e-10 -52017.5 0.
6.00022e-10 -52017.5 0.
6.00022e-10 -52017.5 0.
