# vtk DataFile Version 2.0
test grain
ASCII
DATASET UNSTRUCTURED_GRID
POINTS 4 float
0.211325 0.211244 0.
0.788675 0.211244 0.
0.211325 0.788372 0.
0.788675 0.788372 0.
CELLS 4 8
1 0
1 1
1 2
1 3
CELL_TYPES 4
1 
1 
1 
1 
POINT_DATA 4
VECTORS Stress float
-3.68315e-10 -36588.7 0.
-3.68315e-10 -36588.7 0.
3.26835e-10 -36588.7 0.
3.26835e-10 -36588.7 0.
