# vtk DataFile Version 2.0
test grain
ASCII
DATASET UNSTRUCTURED_GRID
POINTS 4 float
0.211325 0.211351 0.
0.788675 0.211351 0.
0.211325 0.788771 0.
0.788675 0.788771 0.
CELLS 4 8
1 0
1 1
1 2
1 3
CELL_TYPES 4
1 
1 
1 
1 
POINT_DATA 4
VECTORS Stress float
2.99937e-10 -23016.4 0.
2.99937e-10 -23016.4 0.
7.60686e-10 -23016.4 0.
7.60686e-10 -23016.4 0.
