# vtk DataFile Version 2.0
test grain
ASCII
DATASET UNSTRUCTURED_GRID
POINTS 4 float
0.25913 0.211325 0.
0.967085 0.211325 0.
0.25913 0.788675 0.
0.967085 0.788675 0.
CELLS 4 8
1 0
1 1
1 2
1 3
CELL_TYPES 4
1 
1 
1 
1 
POINT_DATA 4
VECTORS Stress float
-52321.4 -50000 0.
-52321.4 -50000 0.
-52321.4 -50000 0.
-52321.4 -50000 0.
