# vtk DataFile Version 2.0
test grain
ASCII
DATASET UNSTRUCTURED_GRID
POINTS 4 float
0.212166 0.211016 0.
0.791815 0.211016 0.
0.212166 0.787523 0.
0.791815 0.787523 0.
CELLS 4 8
1 0
1 1
1 2
1 3
CELL_TYPES 4
1 
1 
1 
1 
POINT_DATA 4
VECTORS Stress float
-340.611 -49955.5 0.
-340.611 -49955.5 0.
-340.611 -49955.5 0.
-340.611 -49955.5 0.
