# vtk DataFile Version 2.0
test grain
ASCII
DATASET UNSTRUCTURED_GRID
POINTS 4 float
0.21204 0.21089 0.
0.791342 0.21089 0.
0.21204 0.787052 0.
0.791342 0.787052 0.
CELLS 4 8
1 0
1 1
1 2
1 3
CELL_TYPES 4
1 
1 
1 
1 
POINT_DATA 4
VECTORS Stress float
-1495.73 -53356.4 0.
-1495.73 -53356.4 0.
-1495.73 -53356.4 0.
-1495.73 -53356.4 0.
