# vtk DataFile Version 2.0
test grain
ASCII
DATASET UNSTRUCTURED_GRID
POINTS 4 float
0.21217 0.211009 0.
0.79183 0.211009 0.
0.21217 0.787496 0.
0.79183 0.787496 0.
CELLS 4 8
1 0
1 1
1 2
1 3
CELL_TYPES 4
1 
1 
1 
1 
POINT_DATA 4
VECTORS Stress float
-167.754 -50200.4 0.
-167.754 -50200.4 0.
-167.754 -50200.4 0.
-167.754 -50200.4 0.
