# vtk DataFile Version 2.0
test grain
ASCII
DATASET UNSTRUCTURED_GRID
POINTS 4 float
0.212176 0.211013 0.
0.791852 0.211013 0.
0.212176 0.78751 0.
0.791852 0.78751 0.
CELLS 4 8
1 0
1 1
1 2
1 3
CELL_TYPES 4
1 
1 
1 
1 
POINT_DATA 4
VECTORS Stress float
208.824 -49950.5 0.
208.824 -49950.5 0.
208.824 -49950.5 0.
208.824 -49950.5 0.
