# vtk DataFile Version 2.0
test grain
ASCII
DATASET UNSTRUCTURED_GRID
POINTS 4 float
0.21217 0.211006 0.
0.791829 0.211006 0.
0.21217 0.787485 0.
0.791829 0.787485 0.
CELLS 4 8
1 0
1 1
1 2
1 3
CELL_TYPES 4
1 
1 
1 
1 
POINT_DATA 4
VECTORS Stress float
-231.64 -50147 0.
-231.64 -50147 0.
-231.64 -50147 0.
-231.64 -50147 0.
