# vtk DataFile Version 2.0
test grain
ASCII
DATASET UNSTRUCTURED_GRID
POINTS 4 float
0.212176 0.211006 0.
0.79185 0.211006 0.
0.212176 0.787487 0.
0.79185 0.787487 0.
CELLS 4 8
1 0
1 1
1 2
1 3
CELL_TYPES 4
1 
1 
1 
1 
POINT_DATA 4
VECTORS Stress float
35.839 -50275.5 0.
35.839 -50275.5 0.
35.839 -50275.5 0.
35.839 -50275.5 0.
