# vtk DataFile Version 2.0
test grain
ASCII
DATASET UNSTRUCTURED_GRID
POINTS 4 float
0.212197 0.21099 0.
0.79193 0.21099 0.
0.212197 0.787425 0.
0.79193 0.787425 0.
CELLS 4 8
1 0
1 1
1 2
1 3
CELL_TYPES 4
1 
1 
1 
1 
POINT_DATA 4
VECTORS Stress float
933.505 -51033.9 0.
933.505 -51033.9 0.
933.505 -51033.9 0.
933.505 -51033.9 0.
