# vtk DataFile Version 2.0
test grain
ASCII
DATASET UNSTRUCTURED_GRID
POINTS 4 float
0.212196 0.210995 0.
0.791927 0.210995 0.
0.212196 0.787444 0.
0.791927 0.787444 0.
CELLS 4 8
1 0
1 1
1 2
1 3
CELL_TYPES 4
1 
1 
1 
1 
POINT_DATA 4
VECTORS Stress float
1271.6 -50573.4 0.
1271.6 -50573.4 0.
1271.6 -50573.4 0.
1271.6 -50573.4 0.
