# vtk DataFile Version 2.0
test grain
ASCII
DATASET UNSTRUCTURED_GRID
POINTS 4 float
0.2116 0.210767 0.
0.7897 0.210767 0.
0.2116 0.786593 0.
0.7897 0.786593 0.
CELLS 4 8
1 0
1 1
1 2
1 3
CELL_TYPES 4
1 
1 
1 
1 
POINT_DATA 4
VECTORS Stress float
-17789.5 -56485.8 0.
-17789.5 -56485.8 0.
-17789.5 -56485.8 0.
-17789.5 -56485.8 0.
