# vtk DataFile Version 2.0
test grain
ASCII
DATASET UNSTRUCTURED_GRID
POINTS 4 float
0.211997 0.211212 0.
0.791183 0.211212 0.
0.211997 0.788254 0.
0.791183 0.788254 0.
CELLS 4 8
1 0
1 1
1 2
1 3
CELL_TYPES 4
1 
1 
1 
1 
POINT_DATA 4
VECTORS Stress float
-2876.09 -35352.7 0.
-2876.09 -35352.7 0.
-2876.09 -35352.7 0.
-2876.09 -35352.7 0.
