# vtk DataFile Version 2.0
test grain
ASCII
DATASET UNSTRUCTURED_GRID
POINTS 4 float
0.212151 0.210951 0.
0.791759 0.210951 0.
0.212151 0.78728 0.
0.791759 0.78728 0.
CELLS 4 8
1 0
1 1
1 2
1 3
CELL_TYPES 4
1 
1 
1 
1 
POINT_DATA 4
VECTORS Stress float
-685.709 -52839.4 0.
-685.709 -52839.4 0.
-685.709 -52839.4 0.
-685.709 -52839.4 0.
