# vtk DataFile Version 2.0
test grain
ASCII
DATASET UNSTRUCTURED_GRID
POINTS 4 float
0.212068 0.211258 0.
0.791449 0.211258 0.
0.212068 0.788424 0.
0.791449 0.788424 0.
CELLS 4 8
1 0
1 1
1 2
1 3
CELL_TYPES 4
1 
1 
1 
1 
POINT_DATA 4
VECTORS Stress float
-340.757 -35608 0.
-340.757 -35608 0.
-340.757 -35608 0.
-340.757 -35608 0.
