# vtk DataFile Version 2.0
test grain
ASCII
DATASET UNSTRUCTURED_GRID
POINTS 4 float
0.212081 0.210925 0.
0.791498 0.210925 0.
0.212081 0.787182 0.
0.791498 0.787182 0.
CELLS 4 8
1 0
1 1
1 2
1 3
CELL_TYPES 4
1 
1 
1 
1 
POINT_DATA 4
VECTORS Stress float
-3320.34 -54279.5 0.
-3320.34 -54279.5 0.
-3320.34 -54279.5 0.
-3320.34 -54279.5 0.
