# vtk DataFile Version 2.0
test grain
ASCII
DATASET UNSTRUCTURED_GRID
POINTS 4 float
0.212166 0.21104 0.
0.791813 0.21104 0.
0.212166 0.787611 0.
0.791813 0.787611 0.
CELLS 4 8
1 0
1 1
1 2
1 3
CELL_TYPES 4
1 
1 
1 
1 
POINT_DATA 4
VECTORS Stress float
-203.183 -48565.8 0.
-203.183 -48565.8 0.
-203.183 -48565.8 0.
-203.183 -48565.8 0.
