# vtk DataFile Version 2.0
test grain
ASCII
DATASET UNSTRUCTURED_GRID
POINTS 4 float
0.212107 0.211113 0.
0.791596 0.211113 0.
0.212107 0.787886 0.
0.791596 0.787886 0.
CELLS 4 8
1 0
1 1
1 2
1 3
CELL_TYPES 4
1 
1 
1 
1 
POINT_DATA 4
VECTORS Stress float
-2086.99 -45242.2 0.
-2086.99 -45242.2 0.
-2086.99 -45242.2 0.
-2086.99 -45242.2 0.
