# vtk DataFile Version 2.0
test grain
ASCII
DATASET UNSTRUCTURED_GRID
POINTS 4 float
0.212156 0.211057 0.
0.791775 0.211057 0.
0.212156 0.787675 0.
0.791775 0.787675 0.
CELLS 4 8
1 0
1 1
1 2
1 3
CELL_TYPES 4
1 
1 
1 
1 
POINT_DATA 4
VECTORS Stress float
-748.367 -47905.1 0.
-748.367 -47905.1 0.
-748.367 -47905.1 0.
-748.367 -47905.1 0.
