# vtk DataFile Version 2.0
test grain
ASCII
DATASET UNSTRUCTURED_GRID
POINTS 4 float
0.211954 0.211251 0.
0.791022 0.211251 0.
0.211954 0.788399 0.
0.791022 0.788399 0.
CELLS 4 8
1 0
1 1
1 2
1 3
CELL_TYPES 4
1 
1 
1 
1 
POINT_DATA 4
VECTORS Stress float
5848.53 -27468 0.
5848.53 -27468 0.
5848.53 -27468 0.
5848.53 -27468 0.
