# vtk DataFile Version 2.0
test grain
ASCII
DATASET UNSTRUCTURED_GRID
POINTS 4 float
0.212174 0.211034 0.
0.791843 0.211034 0.
0.212174 0.78759 0.
0.791843 0.78759 0.
CELLS 4 8
1 0
1 1
1 2
1 3
CELL_TYPES 4
1 
1 
1 
1 
POINT_DATA 4
VECTORS Stress float
600.546 -48808 0.
600.546 -48808 0.
600.546 -48808 0.
600.546 -48808 0.
