# vtk DataFile Version 2.0
test grain
ASCII
DATASET UNSTRUCTURED_GRID
POINTS 4 float
0.212295 0.210374 0.
0.792296 0.210374 0.
0.212295 0.785126 0.
0.792296 0.785126 0.
CELLS 4 8
1 0
1 1
1 2
1 3
CELL_TYPES 4
1 
1 
1 
1 
POINT_DATA 4
VECTORS Stress float
22099.1 -60788.3 0.
22099.1 -60788.3 0.
22099.1 -60788.3 0.
22099.1 -60788.3 0.
