# vtk DataFile Version 2.0
test grain
ASCII
DATASET UNSTRUCTURED_GRID
POINTS 4 float
0.211787 0.210942 0.
0.7904 0.210942 0.
0.211787 0.787245 0.
0.7904 0.787245 0.
CELLS 4 8
1 0
1 1
1 2
1 3
CELL_TYPES 4
1 
1 
1 
1 
POINT_DATA 4
VECTORS Stress float
-10053.5 -44288.9 0.
-10053.5 -44288.9 0.
-10053.5 -44288.9 0.
-10053.5 -44288.9 0.
