# vtk DataFile Version 2.0
test grain
ASCII
DATASET UNSTRUCTURED_GRID
POINTS 4 float
0.212147 0.211086 0.
0.791742 0.211086 0.
0.212147 0.787782 0.
0.791742 0.787782 0.
CELLS 4 8
1 0
1 1
1 2
1 3
CELL_TYPES 4
1 
1 
1 
1 
POINT_DATA 4
VECTORS Stress float
-428.456 -46228 0.
-428.456 -46228 0.
-428.456 -46228 0.
-428.456 -46228 0.
