# vtk DataFile Version 2.0
test grain
ASCII
DATASET UNSTRUCTURED_GRID
POINTS 4 float
0.21219 0.210991 0.
0.791904 0.210991 0.
0.21219 0.787428 0.
0.791904 0.787428 0.
CELLS 4 8
1 0
1 1
1 2
1 3
CELL_TYPES 4
1 
1 
1 
1 
POINT_DATA 4
VECTORS Stress float
746.523 -50747.9 0.
746.523 -50747.9 0.
746.523 -50747.9 0.
746.523 -50747.9 0.
