# vtk DataFile Version 2.0
test grain
ASCII
DATASET UNSTRUCTURED_GRID
POINTS 4 float
0.212178 0.211015 0.
0.791857 0.211015 0.
0.212178 0.787518 0.
0.791857 0.787518 0.
CELLS 4 8
1 0
1 1
1 2
1 3
CELL_TYPES 4
1 
1 
1 
1 
POINT_DATA 4
VECTORS Stress float
131.77 -49843.2 0.
131.77 -49843.2 0.
131.77 -49843.2 0.
131.77 -49843.2 0.
