# vtk DataFile Version 2.0
test grain
ASCII
DATASET UNSTRUCTURED_GRID
POINTS 4 float
0.212162 0.211132 0.
0.791798 0.211132 0.
0.212162 0.787955 0.
0.791798 0.787955 0.
CELLS 4 8
1 0
1 1
1 2
1 3
CELL_TYPES 4
1 
1 
1 
1 
POINT_DATA 4
VECTORS Stress float
2793.39 -42739.8 0.
2793.39 -42739.8 0.
2793.39 -42739.8 0.
2793.39 -42739.8 0.
