# vtk DataFile Version 2.0
test grain
ASCII
DATASET UNSTRUCTURED_GRID
POINTS 4 float
0.212074 0.211023 0.
0.791472 0.211023 0.
0.212074 0.78755 0.
0.791472 0.78755 0.
CELLS 4 8
1 0
1 1
1 2
1 3
CELL_TYPES 4
1 
1 
1 
1 
POINT_DATA 4
VECTORS Stress float
-4596.33 -49675.3 0.
-4596.33 -49675.3 0.
-4596.33 -49675.3 0.
-4596.33 -49675.3 0.
