# vtk DataFile Version 2.0
test grain
ASCII
DATASET UNSTRUCTURED_GRID
POINTS 4 float
0.21215 0.211023 0.
0.791753 0.211023 0.
0.21215 0.787548 0.
0.791753 0.787548 0.
CELLS 4 8
1 0
1 1
1 2
1 3
CELL_TYPES 4
1 
1 
1 
1 
POINT_DATA 4
VECTORS Stress float
-1149.86 -49658.1 0.
-1149.86 -49658.1 0.
-1149.86 -49658.1 0.
-1149.86 -49658.1 0.
