# vtk DataFile Version 2.0
test grain
ASCII
DATASET UNSTRUCTURED_GRID
POINTS 4 float
0.212173 0.210996 0.
0.791842 0.210996 0.
0.212173 0.787446 0.
0.791842 0.787446 0.
CELLS 4 8
1 0
1 1
1 2
1 3
CELL_TYPES 4
1 
1 
1 
1 
POINT_DATA 4
VECTORS Stress float
-15.5441 -51004.1 0.
-15.5441 -51004.1 0.
-15.5441 -51004.1 0.
-15.5441 -51004.1 0.
