# vtk DataFile Version 2.0
test grain
ASCII
DATASET UNSTRUCTURED_GRID
POINTS 4 float
0.21218 0.211005 0.
0.791868 0.211005 0.
0.21218 0.78748 0.
0.791868 0.78748 0.
CELLS 4 8
1 0
1 1
1 2
1 3
CELL_TYPES 4
1 
1 
1 
1 
POINT_DATA 4
VECTORS Stress float
307.804 -50290.3 0.
307.804 -50290.3 0.
307.804 -50290.3 0.
307.804 -50290.3 0.
