# vtk DataFile Version 2.0
test grain
ASCII
DATASET UNSTRUCTURED_GRID
POINTS 4 float
0.21226 0.211033 0.
0.792164 0.211033 0.
0.21226 0.787585 0.
0.792164 0.787585 0.
CELLS 4 8
1 0
1 1
1 2
1 3
CELL_TYPES 4
1 
1 
1 
1 
POINT_DATA 4
VECTORS Stress float
4597.47 -47252.6 0.
4597.47 -47252.6 0.
4597.47 -47252.6 0.
4597.47 -47252.6 0.
