# vtk DataFile Version 2.0
test grain
ASCII
DATASET UNSTRUCTURED_GRID
POINTS 4 float
0.212169 0.211095 0.
0.791824 0.211095 0.
0.212169 0.787816 0.
0.791824 0.787816 0.
CELLS 4 8
1 0
1 1
1 2
1 3
CELL_TYPES 4
1 
1 
1 
1 
POINT_DATA 4
VECTORS Stress float
501.839 -45185.3 0.
501.839 -45185.3 0.
501.839 -45185.3 0.
501.839 -45185.3 0.
