# vtk DataFile Version 2.0
test grain
ASCII
DATASET UNSTRUCTURED_GRID
POINTS 4 float
0.211309 0.210513 0.
0.788615 0.210513 0.
0.211309 0.785644 0.
0.788615 0.785644 0.
CELLS 4 8
1 0
1 1
1 2
1 3
CELL_TYPES 4
1 
1 
1 
1 
POINT_DATA 4
VECTORS Stress float
-18181.6 -57260.4 0.
-18181.6 -57260.4 0.
-18181.6 -57260.4 0.
-18181.6 -57260.4 0.
