# vtk DataFile Version 2.0
test grain
ASCII
DATASET UNSTRUCTURED_GRID
POINTS 4 float
0.212183 0.21094 0.
0.791876 0.21094 0.
0.212183 0.787237 0.
0.791876 0.787237 0.
CELLS 4 8
1 0
1 1
1 2
1 3
CELL_TYPES 4
1 
1 
1 
1 
POINT_DATA 4
VECTORS Stress float
244.348 -53245.9 0.
244.348 -53245.9 0.
244.348 -53245.9 0.
244.348 -53245.9 0.
