# vtk DataFile Version 2.0
test grain
ASCII
DATASET UNSTRUCTURED_GRID
POINTS 4 float
0.21217 0.211013 0.
0.79183 0.211013 0.
0.21217 0.78751 0.
0.79183 0.78751 0.
CELLS 4 8
1 0
1 1
1 2
1 3
CELL_TYPES 4
1 
1 
1 
1 
POINT_DATA 4
VECTORS Stress float
-191.542 -49959.9 0.
-191.542 -49959.9 0.
-191.542 -49959.9 0.
-191.542 -49959.9 0.
