# vtk DataFile Version 2.0
test grain
ASCII
DATASET UNSTRUCTURED_GRID
POINTS 4 float
0.212477 0.210845 0.
0.792975 0.210845 0.
0.212477 0.786885 0.
0.792975 0.786885 0.
CELLS 4 8
1 0
1 1
1 2
1 3
CELL_TYPES 4
1 
1 
1 
1 
POINT_DATA 4
VECTORS Stress float
20212.7 -48989.2 0.
20212.7 -48989.2 0.
20212.7 -48989.2 0.
20212.7 -48989.2 0.
