# vtk DataFile Version 2.0
test grain
ASCII
DATASET UNSTRUCTURED_GRID
POINTS 4 float
0.21126 0.210469 0.
0.788434 0.210469 0.
0.21126 0.785483 0.
0.788434 0.785483 0.
CELLS 4 8
1 0
1 1
1 2
1 3
CELL_TYPES 4
1 
1 
1 
1 
POINT_DATA 4
VECTORS Stress float
-26640.4 -56961.4 0.
-26640.4 -56961.4 0.
-26640.4 -56961.4 0.
-26640.4 -56961.4 0.
