# vtk DataFile Version 2.0
test grain
ASCII
DATASET UNSTRUCTURED_GRID
POINTS 4 float
0.212175 0.21102 0.
0.791846 0.21102 0.
0.212175 0.787537 0.
0.791846 0.787537 0.
CELLS 4 8
1 0
1 1
1 2
1 3
CELL_TYPES 4
1 
1 
1 
1 
POINT_DATA 4
VECTORS Stress float
50.6704 -49558.8 0.
50.6704 -49558.8 0.
50.6704 -49558.8 0.
50.6704 -49558.8 0.
