# vtk DataFile Version 2.0
test grain
ASCII
DATASET UNSTRUCTURED_GRID
POINTS 4 float
0.212078 0.210342 0.
0.791487 0.210342 0.
0.212078 0.785005 0.
0.791487 0.785005 0.
CELLS 4 8
1 0
1 1
1 2
1 3
CELL_TYPES 4
1 
1 
1 
1 
POINT_DATA 4
VECTORS Stress float
1848.84 -72624.7 0.
1848.84 -72624.7 0.
1848.84 -72624.7 0.
1848.84 -72624.7 0.
