# vtk DataFile Version 2.0
test grain
ASCII
DATASET UNSTRUCTURED_GRID
POINTS 4 float
0.212412 0.210598 0.
0.792734 0.210598 0.
0.212412 0.785963 0.
0.792734 0.785963 0.
CELLS 4 8
1 0
1 1
1 2
1 3
CELL_TYPES 4
1 
1 
1 
1 
POINT_DATA 4
VECTORS Stress float
20491.6 -57794.1 0.
20491.6 -57794.1 0.
20491.6 -57794.1 0.
20491.6 -57794.1 0.
