# vtk DataFile Version 2.0
test grain
ASCII
DATASET UNSTRUCTURED_GRID
POINTS 4 float
0.212302 0.210907 0.
0.792321 0.210907 0.
0.212302 0.787117 0.
0.792321 0.787117 0.
CELLS 4 8
1 0
1 1
1 2
1 3
CELL_TYPES 4
1 
1 
1 
1 
POINT_DATA 4
VECTORS Stress float
8413.22 -52698.8 0.
8413.22 -52698.8 0.
8413.22 -52698.8 0.
8413.22 -52698.8 0.
