# vtk DataFile Version 2.0
test grain
ASCII
DATASET UNSTRUCTURED_GRID
POINTS 4 float
0.212149 0.21101 0.
0.79175 0.21101 0.
0.212149 0.787501 0.
0.79175 0.787501 0.
CELLS 4 8
1 0
1 1
1 2
1 3
CELL_TYPES 4
1 
1 
1 
1 
POINT_DATA 4
VECTORS Stress float
-1343.6 -50132.2 0.
-1343.6 -50132.2 0.
-1343.6 -50132.2 0.
-1343.6 -50132.2 0.
