# vtk DataFile Version 2.0
test grain
ASCII
DATASET UNSTRUCTURED_GRID
POINTS 4 float
0.21218 0.211012 0.
0.791868 0.211012 0.
0.21218 0.787507 0.
0.791868 0.787507 0.
CELLS 4 8
1 0
1 1
1 2
1 3
CELL_TYPES 4
1 
1 
1 
1 
POINT_DATA 4
VECTORS Stress float
294.15 -49958 0.
294.15 -49958 0.
294.15 -49958 0.
294.15 -49958 0.
