# vtk DataFile Version 2.0
test grain
ASCII
DATASET UNSTRUCTURED_GRID
POINTS 4 float
0.212181 0.211014 0.
0.791869 0.211014 0.
0.212181 0.787515 0.
0.791869 0.787515 0.
CELLS 4 8
1 0
1 1
1 2
1 3
CELL_TYPES 4
1 
1 
1 
1 
POINT_DATA 4
VECTORS Stress float
347.258 -49888.4 0.
347.258 -49888.4 0.
347.258 -49888.4 0.
347.258 -49888.4 0.
