# vtk DataFile Version 2.0
test grain
ASCII
DATASET UNSTRUCTURED_GRID
POINTS 4 float
0.212189 0.210756 0.
0.791901 0.210756 0.
0.212189 0.786551 0.
0.791901 0.786551 0.
CELLS 4 8
1 0
1 1
1 2
1 3
CELL_TYPES 4
1 
1 
1 
1 
POINT_DATA 4
VECTORS Stress float
2398.83 -59613.2 0.
2398.83 -59613.2 0.
2398.83 -59613.2 0.
2398.83 -59613.2 0.
