# vtk DataFile Version 2.0
test grain
ASCII
DATASET UNSTRUCTURED_GRID
POINTS 4 float
0.211886 0.210977 0.
0.790768 0.210977 0.
0.211886 0.787377 0.
0.790768 0.787377 0.
CELLS 4 8
1 0
1 1
1 2
1 3
CELL_TYPES 4
1 
1 
1 
1 
POINT_DATA 4
VECTORS Stress float
-11162.2 -51273.5 0.
-11162.2 -51273.5 0.
-11162.2 -51273.5 0.
-11162.2 -51273.5 0.
