# vtk DataFile Version 2.0
test grain
ASCII
DATASET UNSTRUCTURED_GRID
POINTS 4 float
0.212191 0.211055 0.
0.791909 0.211055 0.
0.212191 0.78767 0.
0.791909 0.78767 0.
CELLS 4 8
1 0
1 1
1 2
1 3
CELL_TYPES 4
1 
1 
1 
1 
POINT_DATA 4
VECTORS Stress float
1618.6 -47927 0.
1618.6 -47927 0.
1618.6 -47927 0.
1618.6 -47927 0.
