# vtk DataFile Version 2.0
test grain
ASCII
DATASET UNSTRUCTURED_GRID
POINTS 4 float
0.212158 0.21083 0.
0.791784 0.21083 0.
0.212158 0.786829 0.
0.791784 0.786829 0.
CELLS 4 8
1 0
1 1
1 2
1 3
CELL_TYPES 4
1 
1 
1 
1 
POINT_DATA 4
VECTORS Stress float
-686.788 -57049.7 0.
-686.788 -57049.7 0.
-686.788 -57049.7 0.
-686.788 -57049.7 0.
