# vtk DataFile Version 2.0
test grain
ASCII
DATASET UNSTRUCTURED_GRID
POINTS 4 float
0.212183 0.211009 0.
0.791876 0.211009 0.
0.212183 0.787496 0.
0.791876 0.787496 0.
CELLS 4 8
1 0
1 1
1 2
1 3
CELL_TYPES 4
1 
1 
1 
1 
POINT_DATA 4
VECTORS Stress float
350.507 -50129.5 0.
350.507 -50129.5 0.
350.507 -50129.5 0.
350.507 -50129.5 0.
