# vtk DataFile Version 2.0
test grain
ASCII
DATASET UNSTRUCTURED_GRID
POINTS 4 float
0.211391 0.210728 0.
0.788922 0.210728 0.
0.211391 0.786447 0.
0.788922 0.786447 0.
CELLS 4 8
1 0
1 1
1 2
1 3
CELL_TYPES 4
1 
1 
1 
1 
POINT_DATA 4
VECTORS Stress float
-16076.8 -48262.7 0.
-16076.8 -48262.7 0.
-16076.8 -48262.7 0.
-16076.8 -48262.7 0.
