# vtk DataFile Version 2.0
test grain
ASCII
DATASET UNSTRUCTURED_GRID
POINTS 4 float
0.21218 0.211008 0.
0.791868 0.211008 0.
0.21218 0.787493 0.
0.791868 0.787493 0.
CELLS 4 8
1 0
1 1
1 2
1 3
CELL_TYPES 4
1 
1 
1 
1 
POINT_DATA 4
VECTORS Stress float
271.601 -50231 0.
271.601 -50231 0.
271.601 -50231 0.
271.601 -50231 0.
