# vtk DataFile Version 2.0
test grain
ASCII
DATASET UNSTRUCTURED_GRID
POINTS 4 float
0.212187 0.211013 0.
0.791892 0.211013 0.
0.212187 0.787511 0.
0.791892 0.787511 0.
CELLS 4 8
1 0
1 1
1 2
1 3
CELL_TYPES 4
1 
1 
1 
1 
POINT_DATA 4
VECTORS Stress float
603.584 -49817.5 0.
603.584 -49817.5 0.
603.584 -49817.5 0.
603.584 -49817.5 0.
