# vtk DataFile Version 2.0
test grain
ASCII
DATASET UNSTRUCTURED_GRID
POINTS 4 float
0.212174 0.210991 0.
0.791843 0.210991 0.
0.212174 0.787429 0.
0.791843 0.787429 0.
CELLS 4 8
1 0
1 1
1 2
1 3
CELL_TYPES 4
1 
1 
1 
1 
POINT_DATA 4
VECTORS Stress float
-50.1468 -51042 0.
-50.1468 -51042 0.
-50.1468 -51042 0.
-50.1468 -51042 0.
