# vtk DataFile Version 2.0
test grain
ASCII
DATASET UNSTRUCTURED_GRID
POINTS 4 float
0.212092 0.210954 0.
0.791536 0.210954 0.
0.212092 0.78729 0.
0.791536 0.78729 0.
CELLS 4 8
1 0
1 1
1 2
1 3
CELL_TYPES 4
1 
1 
1 
1 
POINT_DATA 4
VECTORS Stress float
-4040.3 -52215.8 0.
-4040.3 -52215.8 0.
-4040.3 -52215.8 0.
-4040.3 -52215.8 0.
