# vtk DataFile Version 2.0
test grain
ASCII
DATASET UNSTRUCTURED_GRID
POINTS 4 float
0.212178 0.211021 0.
0.791859 0.211021 0.
0.212178 0.787542 0.
0.791859 0.787542 0.
CELLS 4 8
1 0
1 1
1 2
1 3
CELL_TYPES 4
1 
1 
1 
1 
POINT_DATA 4
VECTORS Stress float
-16.1501 -49316.6 0.
-16.1501 -49316.6 0.
-16.1501 -49316.6 0.
-16.1501 -49316.6 0.
