# vtk DataFile Version 2.0
test grain
ASCII
DATASET UNSTRUCTURED_GRID
POINTS 4 float
0.211308 0.210864 0.
0.78861 0.210864 0.
0.211308 0.786954 0.
0.78861 0.786954 0.
CELLS 4 8
1 0
1 1
1 2
1 3
CELL_TYPES 4
1 
1 
1 
1 
POINT_DATA 4
VECTORS Stress float
-18292.8 -34167.6 0.
-18292.8 -34167.6 0.
-18292.8 -34167.6 0.
-18292.8 -34167.6 0.
