# vtk DataFile Version 2.0
test grain
ASCII
DATASET UNSTRUCTURED_GRID
POINTS 4 float
0.212064 0.211082 0.
0.791434 0.211082 0.
0.212064 0.787769 0.
0.791434 0.787769 0.
CELLS 4 8
1 0
1 1
1 2
1 3
CELL_TYPES 4
1 
1 
1 
1 
POINT_DATA 4
VECTORS Stress float
-4409.19 -45974.3 0.
-4409.19 -45974.3 0.
-4409.19 -45974.3 0.
-4409.19 -45974.3 0.
