# vtk DataFile Version 2.0
test grain
ASCII
DATASET UNSTRUCTURED_GRID
POINTS 4 float
0.21223 0.211005 0.
0.792052 0.211005 0.
0.21223 0.787481 0.
0.792052 0.787481 0.
CELLS 4 8
1 0
1 1
1 2
1 3
CELL_TYPES 4
1 
1 
1 
1 
POINT_DATA 4
VECTORS Stress float
2677.8 -49822.1 0.
2677.8 -49822.1 0.
2677.8 -49822.1 0.
2677.8 -49822.1 0.
