# vtk DataFile Version 2.0
test grain
ASCII
DATASET UNSTRUCTURED_GRID
POINTS 4 float
0.211765 0.210863 0.
0.790319 0.210863 0.
0.211765 0.78695 0.
0.790319 0.78695 0.
CELLS 4 8
1 0
1 1
1 2
1 3
CELL_TYPES 4
1 
1 
1 
1 
POINT_DATA 4
VECTORS Stress float
-12109.9 -48129.7 0.
-12109.9 -48129.7 0.
-12109.9 -48129.7 0.
-12109.9 -48129.7 0.
