# vtk DataFile Version 2.0
test grain
ASCII
DATASET UNSTRUCTURED_GRID
POINTS 4 float
0.21217 0.211021 0.
0.791828 0.211021 0.
0.21217 0.787539 0.
0.791828 0.787539 0.
CELLS 4 8
1 0
1 1
1 2
1 3
CELL_TYPES 4
1 
1 
1 
1 
POINT_DATA 4
VECTORS Stress float
-144.106 -49585.3 0.
-144.106 -49585.3 0.
-144.106 -49585.3 0.
-144.106 -49585.3 0.
