# vtk DataFile Version 2.0
test grain
ASCII
DATASET UNSTRUCTURED_GRID
POINTS 4 float
0.212249 0.210946 0.
0.792125 0.210946 0.
0.212249 0.787262 0.
0.792125 0.787262 0.
CELLS 4 8
1 0
1 1
1 2
1 3
CELL_TYPES 4
1 
1 
1 
1 
POINT_DATA 4
VECTORS Stress float
4151.28 -51835.4 0.
4151.28 -51835.4 0.
4151.28 -51835.4 0.
4151.28 -51835.4 0.
