# vtk DataFile Version 2.0
test grain
ASCII
DATASET UNSTRUCTURED_GRID
POINTS 4 float
0.212049 0.211067 0.
0.791378 0.211067 0.
0.212049 0.787714 0.
0.791378 0.787714 0.
CELLS 4 8
1 0
1 1
1 2
1 3
CELL_TYPES 4
1 
1 
1 
1 
POINT_DATA 4
VECTORS Stress float
4512.56 -40367.4 0.
4512.56 -40367.4 0.
4512.56 -40367.4 0.
4512.56 -40367.4 0.
