# vtk DataFile Version 2.0
test grain
ASCII
DATASET UNSTRUCTURED_GRID
POINTS 4 float
0.212178 0.210994 0.
0.791858 0.210994 0.
0.212178 0.787441 0.
0.791858 0.787441 0.
CELLS 4 8
1 0
1 1
1 2
1 3
CELL_TYPES 4
1 
1 
1 
1 
POINT_DATA 4
VECTORS Stress float
46.55 -50822.6 0.
46.55 -50822.6 0.
46.55 -50822.6 0.
46.55 -50822.6 0.
