# vtk DataFile Version 2.0
test grain
ASCII
DATASET UNSTRUCTURED_GRID
POINTS 4 float
0.212168 0.210973 0.
0.791823 0.210973 0.
0.212168 0.787363 0.
0.791823 0.787363 0.
CELLS 4 8
1 0
1 1
1 2
1 3
CELL_TYPES 4
1 
1 
1 
1 
POINT_DATA 4
VECTORS Stress float
-552.337 -51690.5 0.
-552.337 -51690.5 0.
-552.337 -51690.5 0.
-552.337 -51690.5 0.
