# vtk DataFile Version 2.0
test grain
ASCII
DATASET UNSTRUCTURED_GRID
POINTS 4 float
0.212168 0.211047 0.
0.791821 0.211047 0.
0.212168 0.787639 0.
0.791821 0.787639 0.
CELLS 4 8
1 0
1 1
1 2
1 3
CELL_TYPES 4
1 
1 
1 
1 
POINT_DATA 4
VECTORS Stress float
-42.1339 -48436.9 0.
-42.1339 -48436.9 0.
-42.1339 -48436.9 0.
-42.1339 -48436.9 0.
