# vtk DataFile Version 2.0
test grain
ASCII
DATASET UNSTRUCTURED_GRID
POINTS 4 float
0.212389 0.211025 0.
0.792647 0.211025 0.
0.212389 0.787554 0.
0.792647 0.787554 0.
CELLS 4 8
1 0
1 1
1 2
1 3
CELL_TYPES 4
1 
1 
1 
1 
POINT_DATA 4
VECTORS Stress float
-1378.79 -51468.8 0.
-1378.79 -51468.8 0.
-1378.79 -51468.8 0.
-1378.79 -51468.8 0.
