# vtk DataFile Version 2.0
test grain
ASCII
DATASET UNSTRUCTURED_GRID
POINTS 4 float
0.212323 0.211157 0.
0.792399 0.211157 0.
0.212323 0.788047 0.
0.792399 0.788047 0.
CELLS 4 8
1 0
1 1
1 2
1 3
CELL_TYPES 4
1 
1 
1 
1 
POINT_DATA 4
VECTORS Stress float
-1203.7 -43211.1 0.
-1203.7 -43211.1 0.
-1203.7 -43211.1 0.
-1203.7 -43211.1 0.
