# vtk DataFile Version 2.0
test grain
ASCII
DATASET UNSTRUCTURED_GRID
POINTS 4 float
0.212411 0.211041 0.
0.792728 0.211041 0.
0.212411 0.787617 0.
0.792728 0.787617 0.
CELLS 4 8
1 0
1 1
1 2
1 3
CELL_TYPES 4
1 
1 
1 
1 
POINT_DATA 4
VECTORS Stress float
116.815 -49719.1 0.
116.815 -49719.1 0.
116.815 -49719.1 0.
116.815 -49719.1 0.
