# vtk DataFile Version 2.0
test grain
ASCII
DATASET UNSTRUCTURED_GRID
POINTS 4 float
0.212203 0.211164 0.
0.791951 0.211164 0.
0.212203 0.788076 0.
0.791951 0.788076 0.
CELLS 4 8
1 0
1 1
1 2
1 3
CELL_TYPES 4
1 
1 
1 
1 
POINT_DATA 4
VECTORS Stress float
-5675.44 -42539.9 0.
-5675.44 -42539.9 0.
-5675.44 -42539.9 0.
-5675.44 -42539.9 0.
