# vtk DataFile Version 2.0
test grain
ASCII
DATASET UNSTRUCTURED_GRID
POINTS 4 float
0.212247 0.211018 0.
0.792116 0.211018 0.
0.212247 0.78753 0.
0.792116 0.78753 0.
CELLS 4 8
1 0
1 1
1 2
1 3
CELL_TYPES 4
1 
1 
1 
1 
POINT_DATA 4
VECTORS Stress float
-7306.47 -53199.6 0.
-7306.47 -53199.6 0.
-7306.47 -53199.6 0.
-7306.47 -53199.6 0.
