# vtk DataFile Version 2.0
test grain
ASCII
DATASET UNSTRUCTURED_GRID
POINTS 4 float
0.212404 0.211022 0.
0.792703 0.211022 0.
0.212404 0.787545 0.
0.792703 0.787545 0.
CELLS 4 8
1 0
1 1
1 2
1 3
CELL_TYPES 4
1 
1 
1 
1 
POINT_DATA 4
VECTORS Stress float
-661.018 -50727.1 0.
-661.018 -50727.1 0.
-661.018 -50727.1 0.
-661.018 -50727.1 0.
