# vtk DataFile Version 2.0
test grain
ASCII
DATASET UNSTRUCTURED_GRID
POINTS 4 float
0.21237 0.211051 0.
0.792576 0.211051 0.
0.21237 0.787653 0.
0.792576 0.787653 0.
CELLS 4 8
1 0
1 1
1 2
1 3
CELL_TYPES 4
1 
1 
1 
1 
POINT_DATA 4
VECTORS Stress float
-2069.12 -49985.7 0.
-2069.12 -49985.7 0.
-2069.12 -49985.7 0.
-2069.12 -49985.7 0.
