# vtk DataFile Version 2.0
test grain
ASCII
DATASET UNSTRUCTURED_GRID
POINTS 4 float
0.212238 0.21108 0.
0.792083 0.21108 0.
0.212238 0.787762 0.
0.792083 0.787762 0.
CELLS 4 8
1 0
1 1
1 2
1 3
CELL_TYPES 4
1 
1 
1 
1 
POINT_DATA 4
VECTORS Stress float
1501.01 -38540.5 0.
1501.01 -38540.5 0.
1501.01 -38540.5 0.
1501.01 -38540.5 0.
