# vtk DataFile Version 2.0
test grain
ASCII
DATASET UNSTRUCTURED_GRID
POINTS 4 float
0.212417 0.210999 0.
0.792753 0.210999 0.
0.212417 0.78746 0.
0.792753 0.78746 0.
CELLS 4 8
1 0
1 1
1 2
1 3
CELL_TYPES 4
1 
1 
1 
1 
POINT_DATA 4
VECTORS Stress float
-62.6003 -51257.4 0.
-62.6003 -51257.4 0.
-62.6003 -51257.4 0.
-62.6003 -51257.4 0.
