# vtk DataFile Version 2.0
test grain
ASCII
DATASET UNSTRUCTURED_GRID
POINTS 4 float
0.212382 0.211104 0.
0.792621 0.211104 0.
0.212382 0.787851 0.
0.792621 0.787851 0.
CELLS 4 8
1 0
1 1
1 2
1 3
CELL_TYPES 4
1 
1 
1 
1 
POINT_DATA 4
VECTORS Stress float
869.915 -46096.1 0.
869.915 -46096.1 0.
869.915 -46096.1 0.
869.915 -46096.1 0.
