# vtk DataFile Version 2.0
test grain
ASCII
DATASET UNSTRUCTURED_GRID
POINTS 4 float
0.212364 0.211123 0.
0.792552 0.211123 0.
0.212364 0.787922 0.
0.792552 0.787922 0.
CELLS 4 8
1 0
1 1
1 2
1 3
CELL_TYPES 4
1 
1 
1 
1 
POINT_DATA 4
VECTORS Stress float
-263.795 -45282.5 0.
-263.795 -45282.5 0.
-263.795 -45282.5 0.
-263.795 -45282.5 0.
