# vtk DataFile Version 2.0
test grain
ASCII
DATASET UNSTRUCTURED_GRID
POINTS 4 float
0.212416 0.211036 0.
0.792746 0.211036 0.
0.212416 0.787597 0.
0.792746 0.787597 0.
CELLS 4 8
1 0
1 1
1 2
1 3
CELL_TYPES 4
1 
1 
1 
1 
POINT_DATA 4
VECTORS Stress float
275.112 -49937.1 0.
275.112 -49937.1 0.
275.112 -49937.1 0.
275.112 -49937.1 0.
