# vtk DataFile Version 2.0
test grain
ASCII
DATASET UNSTRUCTURED_GRID
POINTS 4 float
0.21245 0.211041 0.
0.792873 0.211041 0.
0.21245 0.787617 0.
0.792873 0.787617 0.
CELLS 4 8
1 0
1 1
1 2
1 3
CELL_TYPES 4
1 
1 
1 
1 
POINT_DATA 4
VECTORS Stress float
4852.73 -47287.3 0.
4852.73 -47287.3 0.
4852.73 -47287.3 0.
4852.73 -47287.3 0.
