# vtk DataFile Version 2.0
test grain
ASCII
DATASET UNSTRUCTURED_GRID
POINTS 4 float
0.212448 0.211009 0.
0.792867 0.211009 0.
0.212448 0.787495 0.
0.792867 0.787495 0.
CELLS 4 8
1 0
1 1
1 2
1 3
CELL_TYPES 4
1 
1 
1 
1 
POINT_DATA 4
VECTORS Stress float
1458.97 -50701 0.
1458.97 -50701 0.
1458.97 -50701 0.
1458.97 -50701 0.
