# vtk DataFile Version 2.0
test grain
ASCII
DATASET UNSTRUCTURED_GRID
POINTS 4 float
0.212401 0.211068 0.
0.792691 0.211068 0.
0.212401 0.787716 0.
0.792691 0.787716 0.
CELLS 4 8
1 0
1 1
1 2
1 3
CELL_TYPES 4
1 
1 
1 
1 
POINT_DATA 4
VECTORS Stress float
662.789 -48162.5 0.
662.789 -48162.5 0.
662.789 -48162.5 0.
662.789 -48162.5 0.
