# vtk DataFile Version 2.0
test grain
ASCII
DATASET UNSTRUCTURED_GRID
POINTS 4 float
0.212017 0.210677 0.
0.791257 0.210677 0.
0.212017 0.786258 0.
0.791257 0.786258 0.
CELLS 4 8
1 0
1 1
1 2
1 3
CELL_TYPES 4
1 
1 
1 
1 
POINT_DATA 4
VECTORS Stress float
-16232.8 -61884.3 0.
-16232.8 -61884.3 0.
-16232.8 -61884.3 0.
-16232.8 -61884.3 0.
