# vtk DataFile Version 2.0
test grain
ASCII
DATASET UNSTRUCTURED_GRID
POINTS 4 float
0.212473 0.210962 0.
0.79296 0.210962 0.
0.212473 0.787322 0.
0.79296 0.787322 0.
CELLS 4 8
1 0
1 1
1 2
1 3
CELL_TYPES 4
1 
1 
1 
1 
POINT_DATA 4
VECTORS Stress float
2036.71 -52650.2 0.
2036.71 -52650.2 0.
2036.71 -52650.2 0.
2036.71 -52650.2 0.
