# vtk DataFile Version 2.0
test grain
ASCII
DATASET UNSTRUCTURED_GRID
POINTS 4 float
0.212405 0.211046 0.
0.792708 0.211046 0.
0.212405 0.787635 0.
0.792708 0.787635 0.
CELLS 4 8
1 0
1 1
1 2
1 3
CELL_TYPES 4
1 
1 
1 
1 
POINT_DATA 4
VECTORS Stress float
-10.146 -49555.5 0.
-10.146 -49555.5 0.
-10.146 -49555.5 0.
-10.146 -49555.5 0.
