# vtk DataFile Version 2.0
test grain
ASCII
DATASET UNSTRUCTURED_GRID
POINTS 4 float
0.21245 0.210958 0.
0.792876 0.210958 0.
0.21245 0.787306 0.
0.792876 0.787306 0.
CELLS 4 8
1 0
1 1
1 2
1 3
CELL_TYPES 4
1 
1 
1 
1 
POINT_DATA 4
VECTORS Stress float
1931.24 -51717.2 0.
1931.24 -51717.2 0.
1931.24 -51717.2 0.
1931.24 -51717.2 0.
