# vtk DataFile Version 2.0
test grain
ASCII
DATASET UNSTRUCTURED_GRID
POINTS 4 float
0.212402 0.211038 0.
0.792694 0.211038 0.
0.212402 0.787605 0.
0.792694 0.787605 0.
CELLS 4 8
1 0
1 1
1 2
1 3
CELL_TYPES 4
1 
1 
1 
1 
POINT_DATA 4
VECTORS Stress float
-539.415 -50121.6 0.
-539.415 -50121.6 0.
-539.415 -50121.6 0.
-539.415 -50121.6 0.
