# vtk DataFile Version 2.0
test grain
ASCII
DATASET UNSTRUCTURED_GRID
POINTS 4 float
0.212416 0.211033 0.
0.792748 0.211033 0.
0.212416 0.787586 0.
0.792748 0.787586 0.
CELLS 4 8
1 0
1 1
1 2
1 3
CELL_TYPES 4
1 
1 
1 
1 
POINT_DATA 4
VECTORS Stress float
235.461 -50187 0.
235.461 -50187 0.
235.461 -50187 0.
235.461 -50187 0.
