# vtk DataFile Version 2.0
test grain
ASCII
DATASET UNSTRUCTURED_GRID
POINTS 4 float
0.212445 0.21099 0.
0.792854 0.21099 0.
0.212445 0.787427 0.
0.792854 0.787427 0.
CELLS 4 8
1 0
1 1
1 2
1 3
CELL_TYPES 4
1 
1 
1 
1 
POINT_DATA 4
VECTORS Stress float
965.677 -52128 0.
965.677 -52128 0.
965.677 -52128 0.
965.677 -52128 0.
