# vtk DataFile Version 2.0
test grain
ASCII
DATASET UNSTRUCTURED_GRID
POINTS 4 float
0.211472 0.210985 0.
0.789222 0.210985 0.
0.211472 0.787405 0.
0.789222 0.787405 0.
CELLS 4 8
1 0
1 1
1 2
1 3
CELL_TYPES 4
1 
1 
1 
1 
POINT_DATA 4
VECTORS Stress float
-200.782 -22207.8 0.
-200.782 -22207.8 0.
-200.782 -22207.8 0.
-200.782 -22207.8 0.
