# vtk DataFile Version 2.0
test grain
ASCII
DATASET UNSTRUCTURED_GRID
POINTS 4 float
0.212295 0.211035 0.
0.792297 0.211035 0.
0.212295 0.787595 0.
0.792297 0.787595 0.
CELLS 4 8
1 0
1 1
1 2
1 3
CELL_TYPES 4
1 
1 
1 
1 
POINT_DATA 4
VECTORS Stress float
-3388.48 -48046.4 0.
-3388.48 -48046.4 0.
-3388.48 -48046.4 0.
-3388.48 -48046.4 0.
