# vtk DataFile Version 2.0
test grain
ASCII
DATASET UNSTRUCTURED_GRID
POINTS 4 float
0.212417 0.211052 0.
0.792751 0.211052 0.
0.212417 0.787656 0.
0.792751 0.787656 0.
CELLS 4 8
1 0
1 1
1 2
1 3
CELL_TYPES 4
1 
1 
1 
1 
POINT_DATA 4
VECTORS Stress float
797.573 -48319.2 0.
797.573 -48319.2 0.
797.573 -48319.2 0.
797.573 -48319.2 0.
