# vtk DataFile Version 2.0
test grain
ASCII
DATASET UNSTRUCTURED_GRID
POINTS 4 float
0.212104 0.210992 0.
0.791584 0.210992 0.
0.212104 0.787433 0.
0.791584 0.787433 0.
CELLS 4 8
1 0
1 1
1 2
1 3
CELL_TYPES 4
1 
1 
1 
1 
POINT_DATA 4
VECTORS Stress float
-9586.12 -52073.5 0.
-9586.12 -52073.5 0.
-9586.12 -52073.5 0.
-9586.12 -52073.5 0.
