# vtk DataFile Version 2.0
test grain
ASCII
DATASET UNSTRUCTURED_GRID
POINTS 4 float
0.212385 0.210895 0.
0.792632 0.210895 0.
0.212385 0.787071 0.
0.792632 0.787071 0.
CELLS 4 8
1 0
1 1
1 2
1 3
CELL_TYPES 4
1 
1 
1 
1 
POINT_DATA 4
VECTORS Stress float
8564.04 -48357 0.
8564.04 -48357 0.
8564.04 -48357 0.
8564.04 -48357 0.
