# vtk DataFile Version 2.0
test grain
ASCII
DATASET UNSTRUCTURED_GRID
POINTS 4 float
0.212367 0.210709 0.
0.792565 0.210709 0.
0.212367 0.786375 0.
0.792565 0.786375 0.
CELLS 4 8
1 0
1 1
1 2
1 3
CELL_TYPES 4
1 
1 
1 
1 
POINT_DATA 4
VECTORS Stress float
-2665.63 -64620.8 0.
-2665.63 -64620.8 0.
-2665.63 -64620.8 0.
-2665.63 -64620.8 0.
