# vtk DataFile Version 2.0
test grain
ASCII
DATASET UNSTRUCTURED_GRID
POINTS 4 float
0.212339 0.211163 0.
0.79246 0.211163 0.
0.212339 0.788069 0.
0.79246 0.788069 0.
CELLS 4 8
1 0
1 1
1 2
1 3
CELL_TYPES 4
1 
1 
1 
1 
POINT_DATA 4
VECTORS Stress float
751.524 -42684.5 0.
751.524 -42684.5 0.
751.524 -42684.5 0.
751.524 -42684.5 0.
