# vtk DataFile Version 2.0
test grain
ASCII
DATASET UNSTRUCTURED_GRID
POINTS 4 float
0.212006 0.211185 0.
0.791216 0.211185 0.
0.212006 0.788154 0.
0.791216 0.788154 0.
CELLS 4 8
1 0
1 1
1 2
1 3
CELL_TYPES 4
1 
1 
1 
1 
POINT_DATA 4
VECTORS Stress float
-10076.8 -40037.5 0.
-10076.8 -40037.5 0.
-10076.8 -40037.5 0.
-10076.8 -40037.5 0.
