# vtk DataFile Version 2.0
test grain
ASCII
DATASET UNSTRUCTURED_GRID
POINTS 4 float
0.212422 0.210876 0.
0.792769 0.210876 0.
0.212422 0.786999 0.
0.792769 0.786999 0.
CELLS 4 8
1 0
1 1
1 2
1 3
CELL_TYPES 4
1 
1 
1 
1 
POINT_DATA 4
VECTORS Stress float
-1060.81 -58212 0.
-1060.81 -58212 0.
-1060.81 -58212 0.
-1060.81 -58212 0.
