# vtk DataFile Version 2.0
test grain
ASCII
DATASET UNSTRUCTURED_GRID
POINTS 4 float
0.212409 0.211062 0.
0.792722 0.211062 0.
0.212409 0.787694 0.
0.792722 0.787694 0.
CELLS 4 8
1 0
1 1
1 2
1 3
CELL_TYPES 4
1 
1 
1 
1 
POINT_DATA 4
VECTORS Stress float
496.913 -48247.8 0.
496.913 -48247.8 0.
496.913 -48247.8 0.
496.913 -48247.8 0.
