# vtk DataFile Version 2.0
test grain
ASCII
DATASET UNSTRUCTURED_GRID
POINTS 4 float
0.212423 0.211017 0.
0.792772 0.211017 0.
0.212423 0.787525 0.
0.792772 0.787525 0.
CELLS 4 8
1 0
1 1
1 2
1 3
CELL_TYPES 4
1 
1 
1 
1 
POINT_DATA 4
VECTORS Stress float
319.781 -50782.3 0.
319.781 -50782.3 0.
319.781 -50782.3 0.
319.781 -50782.3 0.
