# vtk DataFile Version 2.0
test grain
ASCII
DATASET UNSTRUCTURED_GRID
POINTS 4 float
0.212265 0.209965 0.
0.792182 0.209965 0.
0.212265 0.783598 0.
0.792182 0.783598 0.
CELLS 4 8
1 0
1 1
1 2
1 3
CELL_TYPES 4
1 
1 
1 
1 
POINT_DATA 4
VECTORS Stress float
-1512.9 -82519.8 0.
-1512.9 -82519.8 0.
-1512.9 -82519.8 0.
-1512.9 -82519.8 0.
