# vtk DataFile Version 2.0
test grain
ASCII
DATASET UNSTRUCTURED_GRID
POINTS 4 float
0.212415 0.21103 0.
0.792745 0.21103 0.
0.212415 0.787576 0.
0.792745 0.787576 0.
CELLS 4 8
1 0
1 1
1 2
1 3
CELL_TYPES 4
1 
1 
1 
1 
POINT_DATA 4
VECTORS Stress float
119.791 -50433.8 0.
119.791 -50433.8 0.
119.791 -50433.8 0.
119.791 -50433.8 0.
