# vtk DataFile Version 2.0
test grain
ASCII
DATASET UNSTRUCTURED_GRID
POINTS 4 float
0.212467 0.210976 0.
0.792938 0.210976 0.
0.212467 0.787371 0.
0.792938 0.787371 0.
CELLS 4 8
1 0
1 1
1 2
1 3
CELL_TYPES 4
1 
1 
1 
1 
POINT_DATA 4
VECTORS Stress float
2715.11 -51550.7 0.
2715.11 -51550.7 0.
2715.11 -51550.7 0.
2715.11 -51550.7 0.
