# vtk DataFile Version 2.0
test grain
ASCII
DATASET UNSTRUCTURED_GRID
POINTS 4 float
0.212224 0.209771 0.
0.792031 0.209771 0.
0.212224 0.782876 0.
0.792031 0.782876 0.
CELLS 4 8
1 0
1 1
1 2
1 3
CELL_TYPES 4
1 
1 
1 
1 
POINT_DATA 4
VECTORS Stress float
231.127 -90701.1 0.
231.127 -90701.1 0.
231.127 -90701.1 0.
231.127 -90701.1 0.
