# vtk DataFile Version 2.0
test grain
ASCII
DATASET UNSTRUCTURED_GRID
POINTS 4 float
0.212435 0.21102 0.
0.792817 0.21102 0.
0.212435 0.787538 0.
0.792817 0.787538 0.
CELLS 4 8
1 0
1 1
1 2
1 3
CELL_TYPES 4
1 
1 
1 
1 
POINT_DATA 4
VECTORS Stress float
1542.33 -50183.2 0.
1542.33 -50183.2 0.
1542.33 -50183.2 0.
1542.33 -50183.2 0.
