# vtk DataFile Version 2.0
test grain
ASCII
DATASET UNSTRUCTURED_GRID
POINTS 4 float
0.212593 0.210882 0.
0.793407 0.210882 0.
0.212593 0.787022 0.
0.793407 0.787022 0.
CELLS 4 8
1 0
1 1
1 2
1 3
CELL_TYPES 4
1 
1 
1 
1 
POINT_DATA 4
VECTORS Stress float
12397.6 -50308.9 0.
12397.6 -50308.9 0.
12397.6 -50308.9 0.
12397.6 -50308.9 0.
