# vtk DataFile Version 2.0
test grain
ASCII
DATASET UNSTRUCTURED_GRID
POINTS 4 float
0.212498 0.210382 0.
0.793052 0.210382 0.
0.212498 0.785156 0.
0.793052 0.785156 0.
CELLS 4 8
1 0
1 1
1 2
1 3
CELL_TYPES 4
1 
1 
1 
1 
POINT_DATA 4
VECTORS Stress float
15550.6 -63016.4 0.
15550.6 -63016.4 0.
15550.6 -63016.4 0.
15550.6 -63016.4 0.
