# vtk DataFile Version 2.0
test grain
ASCII
DATASET UNSTRUCTURED_GRID
POINTS 4 float
0.212516 0.210892 0.
0.79312 0.210892 0.
0.212516 0.78706 0.
0.79312 0.78706 0.
CELLS 4 8
1 0
1 1
1 2
1 3
CELL_TYPES 4
1 
1 
1 
1 
POINT_DATA 4
VECTORS Stress float
7088.96 -50945.5 0.
7088.96 -50945.5 0.
7088.96 -50945.5 0.
7088.96 -50945.5 0.
