# vtk DataFile Version 2.0
test grain
ASCII
DATASET UNSTRUCTURED_GRID
POINTS 4 float
0.212394 0.211045 0.
0.792664 0.211045 0.
0.212394 0.787629 0.
0.792664 0.787629 0.
CELLS 4 8
1 0
1 1
1 2
1 3
CELL_TYPES 4
1 
1 
1 
1 
POINT_DATA 4
VECTORS Stress float
-833.279 -50070.8 0.
-833.279 -50070.8 0.
-833.279 -50070.8 0.
-833.279 -50070.8 0.
