# vtk DataFile Version 2.0
test grain
ASCII
DATASET UNSTRUCTURED_GRID
POINTS 4 float
0.212402 0.211054 0.
0.792693 0.211054 0.
0.212402 0.787666 0.
0.792693 0.787666 0.
CELLS 4 8
1 0
1 1
1 2
1 3
CELL_TYPES 4
1 
1 
1 
1 
POINT_DATA 4
VECTORS Stress float
-6.72366 -49111.4 0.
-6.72366 -49111.4 0.
-6.72366 -49111.4 0.
-6.72366 -49111.4 0.
