# vtk DataFile Version 2.0
test grain
ASCII
DATASET UNSTRUCTURED_GRID
POINTS 4 float
0.212515 0.21094 0.
0.793117 0.21094 0.
0.212515 0.787238 0.
0.793117 0.787238 0.
CELLS 4 8
1 0
1 1
1 2
1 3
CELL_TYPES 4
1 
1 
1 
1 
POINT_DATA 4
VECTORS Stress float
5996.27 -51475.3 0.
5996.27 -51475.3 0.
5996.27 -51475.3 0.
5996.27 -51475.3 0.
