# vtk DataFile Version 2.0
test grain
ASCII
DATASET UNSTRUCTURED_GRID
POINTS 4 float
0.212396 0.211045 0.
0.792673 0.211045 0.
0.212396 0.787631 0.
0.792673 0.787631 0.
CELLS 4 8
1 0
1 1
1 2
1 3
CELL_TYPES 4
1 
1 
1 
1 
POINT_DATA 4
VECTORS Stress float
-707.064 -49903.9 0.
-707.064 -49903.9 0.
-707.064 -49903.9 0.
-707.064 -49903.9 0.
