# vtk DataFile Version 2.0
test grain
ASCII
DATASET UNSTRUCTURED_GRID
POINTS 4 float
0.212374 0.211052 0.
0.792589 0.211052 0.
0.212374 0.787655 0.
0.792589 0.787655 0.
CELLS 4 8
1 0
1 1
1 2
1 3
CELL_TYPES 4
1 
1 
1 
1 
POINT_DATA 4
VECTORS Stress float
-1817 -50120.5 0.
-1817 -50120.5 0.
-1817 -50120.5 0.
-1817 -50120.5 0.
