# vtk DataFile Version 2.0
test grain
ASCII
DATASET UNSTRUCTURED_GRID
POINTS 4 float
0.212406 0.211059 0.
0.792709 0.211059 0.
0.212406 0.787684 0.
0.792709 0.787684 0.
CELLS 4 8
1 0
1 1
1 2
1 3
CELL_TYPES 4
1 
1 
1 
1 
POINT_DATA 4
VECTORS Stress float
237.907 -48625.3 0.
237.907 -48625.3 0.
237.907 -48625.3 0.
237.907 -48625.3 0.
