# vtk DataFile Version 2.0
test grain
ASCII
DATASET UNSTRUCTURED_GRID
POINTS 4 float
0.212403 0.211043 0.
0.792697 0.211043 0.
0.212403 0.787622 0.
0.792697 0.787622 0.
CELLS 4 8
1 0
1 1
1 2
1 3
CELL_TYPES 4
1 
1 
1 
1 
POINT_DATA 4
VECTORS Stress float
-362.805 -49896 0.
-362.805 -49896 0.
-362.805 -49896 0.
-362.805 -49896 0.
