# vtk DataFile Version 2.0
test grain
ASCII
DATASET UNSTRUCTURED_GRID
POINTS 4 float
0.212485 0.210649 0.
0.793005 0.210649 0.
0.212485 0.786153 0.
0.793005 0.786153 0.
CELLS 4 8
1 0
1 1
1 2
1 3
CELL_TYPES 4
1 
1 
1 
1 
POINT_DATA 4
VECTORS Stress float
390.821 -65955.6 0.
390.821 -65955.6 0.
390.821 -65955.6 0.
390.821 -65955.6 0.
