# vtk DataFile Version 2.0
test grain
ASCII
DATASET UNSTRUCTURED_GRID
POINTS 4 float
0.212697 0.210711 0.
0.793798 0.210711 0.
0.212697 0.786386 0.
0.793798 0.786386 0.
CELLS 4 8
1 0
1 1
1 2
1 3
CELL_TYPES 4
1 
1 
1 
1 
POINT_DATA 4
VECTORS Stress float
21940.5 -50831.5 0.
21940.5 -50831.5 0.
21940.5 -50831.5 0.
21940.5 -50831.5 0.
