# vtk DataFile Version 2.0
test grain
ASCII
DATASET UNSTRUCTURED_GRID
POINTS 4 float
0.212363 0.210881 0.
0.792551 0.210881 0.
0.212363 0.787019 0.
0.792551 0.787019 0.
CELLS 4 8
1 0
1 1
1 2
1 3
CELL_TYPES 4
1 
1 
1 
1 
POINT_DATA 4
VECTORS Stress float
-2934.1 -55111.3 0.
-2934.1 -55111.3 0.
-2934.1 -55111.3 0.
-2934.1 -55111.3 0.
