# vtk DataFile Version 2.0
test grain
ASCII
DATASET UNSTRUCTURED_GRID
POINTS 4 float
0.212497 0.210863 0.
0.793048 0.210863 0.
0.212497 0.786952 0.
0.793048 0.786952 0.
CELLS 4 8
1 0
1 1
1 2
1 3
CELL_TYPES 4
1 
1 
1 
1 
POINT_DATA 4
VECTORS Stress float
2107.12 -57006.8 0.
2107.12 -57006.8 0.
2107.12 -57006.8 0.
2107.12 -57006.8 0.
