# vtk DataFile Version 2.0
test grain
ASCII
DATASET UNSTRUCTURED_GRID
POINTS 4 float
0.212444 0.211025 0.
0.792852 0.211025 0.
0.212444 0.787555 0.
0.792852 0.787555 0.
CELLS 4 8
1 0
1 1
1 2
1 3
CELL_TYPES 4
1 
1 
1 
1 
POINT_DATA 4
VECTORS Stress float
2811.6 -49324.4 0.
2811.6 -49324.4 0.
2811.6 -49324.4 0.
2811.6 -49324.4 0.
