# vtk DataFile Version 2.0
test grain
ASCII
DATASET UNSTRUCTURED_GRID
POINTS 4 float
0.212438 0.211 0.
0.792831 0.211 0.
0.212438 0.787464 0.
0.792831 0.787464 0.
CELLS 4 8
1 0
1 1
1 2
1 3
CELL_TYPES 4
1 
1 
1 
1 
POINT_DATA 4
VECTORS Stress float
1081.98 -51192.8 0.
1081.98 -51192.8 0.
1081.98 -51192.8 0.
1081.98 -51192.8 0.
