# vtk DataFile Version 2.0
test grain
ASCII
DATASET UNSTRUCTURED_GRID
POINTS 4 float
0.212337 0.211063 0.
0.792452 0.211063 0.
0.212337 0.787699 0.
0.792452 0.787699 0.
CELLS 4 8
1 0
1 1
1 2
1 3
CELL_TYPES 4
1 
1 
1 
1 
POINT_DATA 4
VECTORS Stress float
-3532.04 -50097.1 0.
-3532.04 -50097.1 0.
-3532.04 -50097.1 0.
-3532.04 -50097.1 0.
