# vtk DataFile Version 2.0
test grain
ASCII
DATASET UNSTRUCTURED_GRID
POINTS 4 float
0.212412 0.211037 0.
0.792731 0.211037 0.
0.212412 0.7876 0.
0.792731 0.7876 0.
CELLS 4 8
1 0
1 1
1 2
1 3
CELL_TYPES 4
1 
1 
1 
1 
POINT_DATA 4
VECTORS Stress float
139.4 -49982.5 0.
139.4 -49982.5 0.
139.4 -49982.5 0.
139.4 -49982.5 0.
