# vtk DataFile Version 2.0
test grain
ASCII
DATASET UNSTRUCTURED_GRID
POINTS 4 float
0.212399 0.210316 0.
0.792685 0.210316 0.
0.212399 0.78491 0.
0.792685 0.78491 0.
CELLS 4 8
1 0
1 1
1 2
1 3
CELL_TYPES 4
1 
1 
1 
1 
POINT_DATA 4
VECTORS Stress float
2604.31 -71313 0.
2604.31 -71313 0.
2604.31 -71313 0.
2604.31 -71313 0.
