# vtk DataFile Version 2.0
test grain
ASCII
DATASET UNSTRUCTURED_GRID
POINTS 4 float
0.211932 0.211128 0.
0.79094 0.211128 0.
0.211932 0.787941 0.
0.79094 0.787941 0.
CELLS 4 8
1 0
1 1
1 2
1 3
CELL_TYPES 4
1 
1 
1 
1 
POINT_DATA 4
VECTORS Stress float
-12909 -44166.5 0.
-12909 -44166.5 0.
-12909 -44166.5 0.
-12909 -44166.5 0.
