# vtk DataFile Version 2.0
test grain
ASCII
DATASET UNSTRUCTURED_GRID
POINTS 4 float
0.212386 0.211048 0.
0.792634 0.211048 0.
0.212386 0.787643 0.
0.792634 0.787643 0.
CELLS 4 8
1 0
1 1
1 2
1 3
CELL_TYPES 4
1 
1 
1 
1 
POINT_DATA 4
VECTORS Stress float
-1262.22 -49932.2 0.
-1262.22 -49932.2 0.
-1262.22 -49932.2 0.
-1262.22 -49932.2 0.
