# vtk DataFile Version 2.0
test grain
ASCII
DATASET UNSTRUCTURED_GRID
POINTS 4 float
0.212404 0.211041 0.
0.792702 0.211041 0.
0.212404 0.787616 0.
0.792702 0.787616 0.
CELLS 4 8
1 0
1 1
1 2
1 3
CELL_TYPES 4
1 
1 
1 
1 
POINT_DATA 4
VECTORS Stress float
-318.45 -50017.4 0.
-318.45 -50017.4 0.
-318.45 -50017.4 0.
-318.45 -50017.4 0.
