# vtk DataFile Version 2.0
test grain
ASCII
DATASET UNSTRUCTURED_GRID
POINTS 4 float
0.212427 0.211026 0.
0.79279 0.211026 0.
0.212427 0.787558 0.
0.79279 0.787558 0.
CELLS 4 8
1 0
1 1
1 2
1 3
CELL_TYPES 4
1 
1 
1 
1 
POINT_DATA 4
VECTORS Stress float
684.263 -50340.5 0.
684.263 -50340.5 0.
684.263 -50340.5 0.
684.263 -50340.5 0.
