# vtk DataFile Version 2.0
test grain
ASCII
DATASET UNSTRUCTURED_GRID
POINTS 4 float
0.212409 0.211027 0.
0.792721 0.211027 0.
0.212409 0.787564 0.
0.792721 0.787564 0.
CELLS 4 8
1 0
1 1
1 2
1 3
CELL_TYPES 4
1 
1 
1 
1 
POINT_DATA 4
VECTORS Stress float
-308.871 -50844.1 0.
-308.871 -50844.1 0.
-308.871 -50844.1 0.
-308.871 -50844.1 0.
